
Gurobi 5.6.3 (linux64) logging started Mon Mar 25 18:38:14 2019


Gurobi 5.6.3 (linux64) logging started Mon Mar 25 18:38:42 2019


Gurobi 5.6.3 (linux64) logging started Mon Mar 25 18:41:47 2019


Gurobi 5.6.3 (linux64) logging started Mon Mar 25 18:44:03 2019


Gurobi 5.6.3 (linux64) logging started Mon Mar 25 18:55:43 2019


Gurobi 5.6.3 (linux64) logging started Mon Mar 25 18:56:49 2019


Gurobi 5.6.3 (linux64) logging started Mon Mar 25 19:00:13 2019


Gurobi 5.6.3 (linux64) logging started Mon Mar 25 19:01:54 2019


Gurobi 5.6.3 (linux64) logging started Mon Mar 25 19:03:44 2019


Gurobi 5.6.3 (linux64) logging started Mon Mar 25 19:03:59 2019


Gurobi 5.6.3 (linux64) logging started Mon Mar 25 19:07:54 2019


Gurobi 5.6.3 (linux64) logging started Mon Mar 25 19:08:49 2019


Gurobi 5.6.3 (linux64) logging started Mon Mar 25 19:10:19 2019

Optimize a model with 67 rows, 64 columns and 259 nonzeros
Presolve time: 0.00s

Explored 0 nodes (0 simplex iterations) in 0.00 seconds
Thread count was 1 (of 8 available processors)

Model is infeasible or unbounded
Best objective -, best bound -, gap -

Gurobi 5.6.3 (linux64) logging started Mon Mar 25 19:13:48 2019

Optimize a model with 67 rows, 64 columns and 259 nonzeros
Presolve time: 0.00s

Explored 0 nodes (0 simplex iterations) in 0.00 seconds
Thread count was 1 (of 8 available processors)

Model is infeasible or unbounded
Best objective -, best bound -, gap -

Gurobi 5.6.3 (linux64) logging started Mon Mar 25 19:14:27 2019

Optimize a model with 67 rows, 64 columns and 259 nonzeros
Presolve time: 0.00s

Explored 0 nodes (0 simplex iterations) in 0.00 seconds
Thread count was 1 (of 8 available processors)

Model is infeasible or unbounded
Best objective -, best bound -, gap -

Gurobi 5.6.3 (linux64) logging started Mon Mar 25 19:25:51 2019

Optimize a model with 67 rows, 64 columns and 259 nonzeros
Presolve time: 0.00s

Explored 0 nodes (0 simplex iterations) in 0.00 seconds
Thread count was 1 (of 8 available processors)

Model is infeasible or unbounded
Best objective -, best bound -, gap -

Gurobi 5.6.3 (linux64) logging started Mon Mar 25 19:38:40 2019

Optimize a model with 67 rows, 64 columns and 259 nonzeros
Presolve time: 0.00s

Explored 0 nodes (0 simplex iterations) in 0.00 seconds
Thread count was 1 (of 8 available processors)

Model is infeasible
Best objective -, best bound -, gap -

Gurobi 5.6.3 (linux64) logging started Mon Mar 25 19:46:12 2019

Optimize a model with 67 rows, 64 columns and 259 nonzeros
Presolve time: 0.00s

Explored 0 nodes (0 simplex iterations) in 0.00 seconds
Thread count was 1 (of 8 available processors)

Model is infeasible
Best objective -, best bound -, gap -

Gurobi 5.6.3 (linux64) logging started Mon Mar 25 19:48:13 2019

Optimize a model with 67 rows, 64 columns and 259 nonzeros
Presolve time: 0.00s

Explored 0 nodes (0 simplex iterations) in 0.00 seconds
Thread count was 1 (of 8 available processors)

Model is infeasible
Best objective -, best bound -, gap -

Gurobi 5.6.3 (linux64) logging started Mon Mar 25 19:49:13 2019

Optimize a model with 67 rows, 64 columns and 259 nonzeros
Presolve time: 0.00s

Explored 0 nodes (0 simplex iterations) in 0.00 seconds
Thread count was 1 (of 8 available processors)

Model is infeasible
Best objective -, best bound -, gap -

Gurobi 5.6.3 (linux64) logging started Mon Mar 25 19:50:26 2019

Optimize a model with 67 rows, 64 columns and 259 nonzeros
Presolve time: 0.00s

Explored 0 nodes (0 simplex iterations) in 0.00 seconds
Thread count was 1 (of 8 available processors)

Model is infeasible
Best objective -, best bound -, gap -
